NAME :
TYPE : CCVRP
COMMENT :
DIMENSION : 253
CAPACITY : 1000
EDGE_WEIGHT_TYPE : EUC_2D_DBL
NODE_COORD_TYPE: TWOD_COORD
NODE_COORD_SECTION
1 0.0000 0.0000
2 3.0000 1.0000
3 3.0000 3.0000
4 1.0000 3.0000
5 -1.0000 3.0000
6 -3.0000 3.0000
7 -3.0000 1.0000
8 -3.0000 -1.0000
9 -3.0000 -3.0000
10 -1.0000 -3.0000
11 1.0000 -3.0000
12 3.0000 -3.0000
13 3.0000 -1.0000
14 5.0000 1.0000
15 5.0000 3.0000
16 5.0000 5.0000
17 3.0000 5.0000
18 1.0000 5.0000
19 -1.0000 5.0000
20 -3.0000 5.0000
21 -5.0000 5.0000
22 -5.0000 3.0000
23 -5.0000 1.0000
24 -5.0000 -1.0000
25 -5.0000 -3.0000
26 -5.0000 -5.0000
27 -3.0000 -5.0000
28 -1.0000 -5.0000
29 1.0000 -5.0000
30 3.0000 -5.0000
31 5.0000 -5.0000
32 5.0000 -3.0000
33 5.0000 -1.0000
34 7.0000 1.0000
35 7.0000 3.0000
36 7.0000 5.0000
37 7.0000 7.0000
38 5.0000 7.0000
39 3.0000 7.0000
40 1.0000 7.0000
41 -1.0000 7.0000
42 -3.0000 7.0000
43 -5.0000 7.0000
44 -7.0000 7.0000
45 -7.0000 5.0000
46 -7.0000 3.0000
47 -7.0000 1.0000
48 -7.0000 -1.0000
49 -7.0000 -3.0000
50 -7.0000 -5.0000
51 -7.0000 -7.0000
52 -5.0000 -7.0000
53 -3.0000 -7.0000
54 -1.0000 -7.0000
55 1.0000 -7.0000
56 3.0000 -7.0000
57 5.0000 -7.0000
58 7.0000 -7.0000
59 7.0000 -5.0000
60 7.0000 -3.0000
61 7.0000 -1.0000
62 9.0000 1.0000
63 9.0000 3.0000
64 9.0000 5.0000
65 9.0000 7.0000
66 9.0000 9.0000
67 7.0000 9.0000
68 5.0000 9.0000
69 3.0000 9.0000
70 1.0000 9.0000
71 -1.0000 9.0000
72 -3.0000 9.0000
73 -5.0000 9.0000
74 -7.0000 9.0000
75 -9.0000 9.0000
76 -9.0000 7.0000
77 -9.0000 5.0000
78 -9.0000 3.0000
79 -9.0000 1.0000
80 -9.0000 -1.0000
81 -9.0000 -3.0000
82 -9.0000 -5.0000
83 -9.0000 -7.0000
84 -9.0000 -9.0000
85 -7.0000 -9.0000
86 -5.0000 -9.0000
87 -3.0000 -9.0000
88 -1.0000 -9.0000
89 1.0000 -9.0000
90 3.0000 -9.0000
91 5.0000 -9.0000
92 7.0000 -9.0000
93 9.0000 -9.0000
94 9.0000 -7.0000
95 9.0000 -5.0000
96 9.0000 -3.0000
97 9.0000 -1.0000
98 11.0000 1.0000
99 11.0000 3.0000
100 11.0000 5.0000
101 11.0000 7.0000
102 11.0000 9.0000
103 11.0000 11.0000
104 9.0000 11.0000
105 7.0000 11.0000
106 5.0000 11.0000
107 3.0000 11.0000
108 1.0000 11.0000
109 -1.0000 11.0000
110 -3.0000 11.0000
111 -5.0000 11.0000
112 -7.0000 11.0000
113 -9.0000 11.0000
114 -11.0000 11.0000
115 -11.0000 9.0000
116 -11.0000 7.0000
117 -11.0000 5.0000
118 -11.0000 3.0000
119 -11.0000 1.0000
120 -11.0000 -1.0000
121 -11.0000 -3.0000
122 -11.0000 -5.0000
123 -11.0000 -7.0000
124 -11.0000 -9.0000
125 -11.0000 -11.0000
126 -9.0000 -11.0000
127 -7.0000 -11.0000
128 -5.0000 -11.0000
129 -3.0000 -11.0000
130 -1.0000 -11.0000
131 1.0000 -11.0000
132 3.0000 -11.0000
133 5.0000 -11.0000
134 7.0000 -11.0000
135 9.0000 -11.0000
136 11.0000 -11.0000
137 11.0000 -9.0000
138 11.0000 -7.0000
139 11.0000 -5.0000
140 11.0000 -3.0000
141 11.0000 -1.0000
142 13.0000 1.0000
143 13.0000 3.0000
144 13.0000 5.0000
145 13.0000 7.0000
146 13.0000 9.0000
147 13.0000 11.0000
148 13.0000 13.0000
149 11.0000 13.0000
150 9.0000 13.0000
151 7.0000 13.0000
152 5.0000 13.0000
153 3.0000 13.0000
154 1.0000 13.0000
155 -1.0000 13.0000
156 -3.0000 13.0000
157 -5.0000 13.0000
158 -7.0000 13.0000
159 -9.0000 13.0000
160 -11.0000 13.0000
161 -13.0000 13.0000
162 -13.0000 11.0000
163 -13.0000 9.0000
164 -13.0000 7.0000
165 -13.0000 5.0000
166 -13.0000 3.0000
167 -13.0000 1.0000
168 -13.0000 -1.0000
169 -13.0000 -3.0000
170 -13.0000 -5.0000
171 -13.0000 -7.0000
172 -13.0000 -9.0000
173 -13.0000 -11.0000
174 -13.0000 -13.0000
175 -11.0000 -13.0000
176 -9.0000 -13.0000
177 -7.0000 -13.0000
178 -5.0000 -13.0000
179 -3.0000 -13.0000
180 -1.0000 -13.0000
181 1.0000 -13.0000
182 3.0000 -13.0000
183 5.0000 -13.0000
184 7.0000 -13.0000
185 9.0000 -13.0000
186 11.0000 -13.0000
187 13.0000 -13.0000
188 13.0000 -11.0000
189 13.0000 -9.0000
190 13.0000 -7.0000
191 13.0000 -5.0000
192 13.0000 -3.0000
193 13.0000 -1.0000
194 15.0000 1.0000
195 15.0000 3.0000
196 15.0000 5.0000
197 15.0000 7.0000
198 15.0000 9.0000
199 15.0000 11.0000
200 15.0000 13.0000
201 15.0000 15.0000
202 13.0000 15.0000
203 11.0000 15.0000
204 9.0000 15.0000
205 7.0000 15.0000
206 5.0000 15.0000
207 3.0000 15.0000
208 1.0000 15.0000
209 -1.0000 15.0000
210 -3.0000 15.0000
211 -5.0000 15.0000
212 -7.0000 15.0000
213 -9.0000 15.0000
214 -11.0000 15.0000
215 -13.0000 15.0000
216 -15.0000 15.0000
217 -15.0000 13.0000
218 -15.0000 11.0000
219 -15.0000 9.0000
220 -15.0000 7.0000
221 -15.0000 5.0000
222 -15.0000 3.0000
223 -15.0000 1.0000
224 -15.0000 -1.0000
225 -15.0000 -3.0000
226 -15.0000 -5.0000
227 -15.0000 -7.0000
228 -15.0000 -9.0000
229 -15.0000 -11.0000
230 -15.0000 -13.0000
231 -15.0000 -15.0000
232 -13.0000 -15.0000
233 -11.0000 -15.0000
234 -9.0000 -15.0000
235 -7.0000 -15.0000
236 -5.0000 -15.0000
237 -3.0000 -15.0000
238 -1.0000 -15.0000
239 1.0000 -15.0000
240 3.0000 -15.0000
241 5.0000 -15.0000
242 7.0000 -15.0000
243 9.0000 -15.0000
244 11.0000 -15.0000
245 13.0000 -15.0000
246 15.0000 -15.0000
247 15.0000 -13.0000
248 15.0000 -11.0000
249 15.0000 -9.0000
250 15.0000 -7.0000
251 15.0000 -5.0000
252 15.0000 -3.0000
253 15.0000 -1.0000
DEMAND_SECTION
1 0
2 300
3 300
4 300
5 300
6 300
7 300
8 300
9 300
10 300
11 300
12 300
13 300
14 180
15 180
16 180
17 180
18 180
19 180
20 180
21 180
22 180
23 180
24 180
25 180
26 180
27 180
28 180
29 180
30 180
31 180
32 180
33 180
34 128
35 128
36 128
37 128
38 128
39 128
40 128
41 128
42 128
43 128
44 128
45 128
46 128
47 128
48 128
49 128
50 128
51 128
52 128
53 128
54 128
55 128
56 128
57 128
58 128
59 128
60 128
61 128
62 100
63 100
64 100
65 100
66 100
67 100
68 100
69 100
70 100
71 100
72 100
73 100
74 100
75 100
76 100
77 100
78 100
79 100
80 100
81 100
82 100
83 100
84 100
85 100
86 100
87 100
88 100
89 100
90 100
91 100
92 100
93 100
94 100
95 100
96 100
97 100
98 81
99 81
100 81
101 81
102 81
103 81
104 81
105 81
106 81
107 81
108 81
109 81
110 81
111 81
112 81
113 81
114 81
115 81
116 81
117 81
118 81
119 81
120 81
121 81
122 81
123 81
124 81
125 81
126 81
127 81
128 81
129 81
130 81
131 81
132 81
133 81
134 81
135 81
136 81
137 81
138 81
139 81
140 81
141 81
142 69
143 69
144 69
145 69
146 69
147 69
148 69
149 69
150 69
151 69
152 69
153 69
154 69
155 69
156 69
157 69
158 69
159 69
160 69
161 69
162 69
163 69
164 69
165 69
166 69
167 69
168 69
169 69
170 69
171 69
172 69
173 69
174 69
175 69
176 69
177 69
178 69
179 69
180 69
181 69
182 69
183 69
184 69
185 69
186 69
187 69
188 69
189 69
190 69
191 69
192 69
193 69
194 60
195 60
196 60
197 60
198 60
199 60
200 60
201 60
202 60
203 60
204 60
205 60
206 60
207 60
208 60
209 60
210 60
211 60
212 60
213 60
214 60
215 60
216 60
217 60
218 60
219 60
220 60
221 60
222 60
223 60
224 60
225 60
226 60
227 60
228 60
229 60
230 60
231 60
232 60
233 60
234 60
235 60
236 60
237 60
238 60
239 60
240 60
241 60
242 60
243 60
244 60
245 60
246 60
247 60
248 60
249 60
250 60
251 60
252 60
253 60
CLUSTER_SECTION
1 28
2 2
3 2
4 2
5 3
6 3
7 3
8 4
9 4
10 4
11 5
12 5
13 5
14 6
15 6
16 7
17 7
18 1
19 1
20 1
21 8
22 8
23 9
24 9
25 9
26 10
27 10
28 11
29 11
30 11
31 12
32 12
33 6
34 6
35 6
36 7
37 7
38 7
39 7
40 1
41 1
42 1
43 8
44 8
45 8
46 8
47 9
48 9
49 9
50 10
51 10
52 10
53 10
54 11
55 11
56 11
57 12
58 12
59 12
60 12
61 6
62 13
63 7
64 13
65 14
66 14
67 14
68 14
69 15
70 15
71 15
72 16
73 16
74 16
75 16
76 16
77 17
78 17
79 17
80 18
81 18
82 18
83 18
84 19
85 19
86 19
87 20
88 20
89 20
90 12
91 21
92 21
93 21
94 21
95 21
96 13
97 13
98 13
99 13
100 13
101 14
102 14
103 14
104 14
105 14
106 15
107 15
108 15
109 15
110 16
111 16
112 16
113 22
114 22
115 17
116 17
117 17
118 17
119 17
120 18
121 18
122 18
123 18
124 19
125 19
126 19
127 19
128 19
129 20
130 20
131 20
132 20
133 21
134 21
135 21
136 23
137 23
138 23
139 24
140 13
141 13
142 13
143 13
144 14
145 14
146 25
147 25
148 25
149 25
150 25
151 15
152 15
153 15
154 15
155 15
156 16
157 16
158 16
159 22
160 22
161 22
162 22
163 17
164 17
165 17
166 17
167 18
168 18
169 18
170 18
171 19
172 19
173 19
174 26
175 19
176 26
177 20
178 20
179 20
180 20
181 20
182 21
183 21
184 21
185 23
186 23
187 23
188 23
189 23
190 23
191 24
192 24
193 24
194 24
195 24
196 24
197 25
198 25
199 25
200 25
201 25
202 25
203 25
204 25
205 25
206 25
207 27
208 27
209 27
210 22
211 22
212 22
213 22
214 22
215 22
216 27
217 22
218 22
219 22
220 27
221 27
222 27
223 27
224 26
225 26
226 26
227 26
228 26
229 26
230 26
231 26
232 26
233 26
234 26
235 26
236 26
237 26
238 27
239 27
240 27
241 24
242 24
243 23
244 23
245 23
246 24
247 23
248 23
249 24
250 24
251 24
252 24
253 24
DEPOT_SECTION
1
-1
EOF
